GPU_version/outputs/rc108.out
Total number of lines in the file: 110
Total number of nodes including depot: 101
Customer 1: (40, 50), Demand: 0, Time Window: [0, 240], Service Time: 0
Customer 2: (25, 85), Demand: 20, Time Window: [49, 191], Service Time: 10
Customer 3: (22, 75), Demand: 30, Time Window: [30, 168], Service Time: 10
Customer 4: (22, 85), Demand: 10, Time Window: [95, 152], Service Time: 10
Customer 5: (20, 80), Demand: 40, Time Window: [69, 193], Service Time: 10
calling MST kernel
Post Processing Route
Post 2 opt Processing Route
2-opt between 6 and 9 improved cost from 1611.23 to 1601.34
2-opt between 7 and 8 improved cost from 1601.34 to 1600.10
Elapsed time: 0.73689 seconds
Final Route: 
Route #1: 90 69 98 88 55 100 70 60 
Route #2: 78 73 79 7 6 2 
Route #3: 8 46 4 45 5 3 1 
Route #4: 12 14 47 17 15 16 11 10 
Route #5: 9 13 53 65 
Route #6: 82 99 52 57 86 74 
Route #7: 87 59 97 58 
Route #8: 75 77 25 23 21 48 
Route #9: 18 19 49 20 22 24 66 
Route #10: 83 80 91 92 94 96 54 72 
Route #11: 41 39 42 44 43 40 38 37 36 35 
Route #12: 81 61 68 93 
Route #13: 71 95 62 67 50 34 31 
Route #14: 29 27 26 28 30 32 33 
Route #15: 56 64 84 
Route #16: 85 63 76 89 51 
Route #17: Total Distance: 1611.23
Final route is valid
