outputs/rc108.txt.out
filename: RC108
Vehicles: 25, Capacity: 200
Total customers : 101
No of routes: 15
Route #1: 80 91 92 95 56
Route #2: 64 76 89 63 85 84
Route #3: 51 29 31 34 50 67 62
Route #4: 27 26 28 30 32 33
Route #5: 94 93 71 72 54 96
Route #6: 41 39 42 44 43 40 38 37 36 35
Route #7: 81 61 68 90
Route #8: 69 98 88 60 100 70 55
Route #9: 78 73 79 7 6 2
Route #10: 8 46 4 45 5 3 1
Route #11: 12 14 47 17 16 15 13 9 11 10
Route #12: 53 83 66 65
Route #13: 82 99 52 86 74 87 59 97 58
Route #14: 75 77 25 23 21 48
Route #15: 18 19 49 20 22 24 57
Cost 1429
